p cnf 110 3530
1 2 3 4 5 6 7 8 9 10 11 0
12 13 14 15 16 17 18 19 20 21 22 0
23 24 25 26 27 28 29 30 31 32 33 0
34 35 36 37 38 39 40 41 42 43 44 0
45 46 47 48 49 50 51 52 53 54 55 0
56 57 58 59 60 61 62 63 64 65 66 0
67 68 69 70 71 72 73 74 75 76 77 0
78 79 80 81 82 83 84 85 86 87 88 0
89 90 91 92 93 94 95 96 97 98 99 0
100 101 102 103 104 105 106 107 108 109 110 0
-1 -2 0
-1 -3 0
-1 -4 0
-1 -5 0
-1 -6 0
-1 -7 0
-1 -8 0
-1 -9 0
-1 -10 0
-1 -11 0
-2 -3 0
-2 -4 0
-2 -5 0
-2 -6 0
-2 -7 0
-2 -8 0
-2 -9 0
-2 -10 0
-2 -11 0
-3 -4 0
-3 -5 0
-3 -6 0
-3 -7 0
-3 -8 0
-3 -9 0
-3 -10 0
-3 -11 0
-4 -5 0
-4 -6 0
-4 -7 0
-4 -8 0
-4 -9 0
-4 -10 0
-4 -11 0
-5 -6 0
-5 -7 0
-5 -8 0
-5 -9 0
-5 -10 0
-5 -11 0
-6 -7 0
-6 -8 0
-6 -9 0
-6 -10 0
-6 -11 0
-7 -8 0
-7 -9 0
-7 -10 0
-7 -11 0
-8 -9 0
-8 -10 0
-8 -11 0
-9 -10 0
-9 -11 0
-10 -11 0
-12 -13 0
-12 -14 0
-12 -15 0
-12 -16 0
-12 -17 0
-12 -18 0
-12 -19 0
-12 -20 0
-12 -21 0
-12 -22 0
-13 -14 0
-13 -15 0
-13 -16 0
-13 -17 0
-13 -18 0
-13 -19 0
-13 -20 0
-13 -21 0
-13 -22 0
-14 -15 0
-14 -16 0
-14 -17 0
-14 -18 0
-14 -19 0
-14 -20 0
-14 -21 0
-14 -22 0
-15 -16 0
-15 -17 0
-15 -18 0
-15 -19 0
-15 -20 0
-15 -21 0
-15 -22 0
-16 -17 0
-16 -18 0
-16 -19 0
-16 -20 0
-16 -21 0
-16 -22 0
-17 -18 0
-17 -19 0
-17 -20 0
-17 -21 0
-17 -22 0
-18 -19 0
-18 -20 0
-18 -21 0
-18 -22 0
-19 -20 0
-19 -21 0
-19 -22 0
-20 -21 0
-20 -22 0
-21 -22 0
-23 -24 0
-23 -25 0
-23 -26 0
-23 -27 0
-23 -28 0
-23 -29 0
-23 -30 0
-23 -31 0
-23 -32 0
-23 -33 0
-24 -25 0
-24 -26 0
-24 -27 0
-24 -28 0
-24 -29 0
-24 -30 0
-24 -31 0
-24 -32 0
-24 -33 0
-25 -26 0
-25 -27 0
-25 -28 0
-25 -29 0
-25 -30 0
-25 -31 0
-25 -32 0
-25 -33 0
-26 -27 0
-26 -28 0
-26 -29 0
-26 -30 0
-26 -31 0
-26 -32 0
-26 -33 0
-27 -28 0
-27 -29 0
-27 -30 0
-27 -31 0
-27 -32 0
-27 -33 0
-28 -29 0
-28 -30 0
-28 -31 0
-28 -32 0
-28 -33 0
-29 -30 0
-29 -31 0
-29 -32 0
-29 -33 0
-30 -31 0
-30 -32 0
-30 -33 0
-31 -32 0
-31 -33 0
-32 -33 0
-34 -35 0
-34 -36 0
-34 -37 0
-34 -38 0
-34 -39 0
-34 -40 0
-34 -41 0
-34 -42 0
-34 -43 0
-34 -44 0
-35 -36 0
-35 -37 0
-35 -38 0
-35 -39 0
-35 -40 0
-35 -41 0
-35 -42 0
-35 -43 0
-35 -44 0
-36 -37 0
-36 -38 0
-36 -39 0
-36 -40 0
-36 -41 0
-36 -42 0
-36 -43 0
-36 -44 0
-37 -38 0
-37 -39 0
-37 -40 0
-37 -41 0
-37 -42 0
-37 -43 0
-37 -44 0
-38 -39 0
-38 -40 0
-38 -41 0
-38 -42 0
-38 -43 0
-38 -44 0
-39 -40 0
-39 -41 0
-39 -42 0
-39 -43 0
-39 -44 0
-40 -41 0
-40 -42 0
-40 -43 0
-40 -44 0
-41 -42 0
-41 -43 0
-41 -44 0
-42 -43 0
-42 -44 0
-43 -44 0
-45 -46 0
-45 -47 0
-45 -48 0
-45 -49 0
-45 -50 0
-45 -51 0
-45 -52 0
-45 -53 0
-45 -54 0
-45 -55 0
-46 -47 0
-46 -48 0
-46 -49 0
-46 -50 0
-46 -51 0
-46 -52 0
-46 -53 0
-46 -54 0
-46 -55 0
-47 -48 0
-47 -49 0
-47 -50 0
-47 -51 0
-47 -52 0
-47 -53 0
-47 -54 0
-47 -55 0
-48 -49 0
-48 -50 0
-48 -51 0
-48 -52 0
-48 -53 0
-48 -54 0
-48 -55 0
-49 -50 0
-49 -51 0
-49 -52 0
-49 -53 0
-49 -54 0
-49 -55 0
-50 -51 0
-50 -52 0
-50 -53 0
-50 -54 0
-50 -55 0
-51 -52 0
-51 -53 0
-51 -54 0
-51 -55 0
-52 -53 0
-52 -54 0
-52 -55 0
-53 -54 0
-53 -55 0
-54 -55 0
-56 -57 0
-56 -58 0
-56 -59 0
-56 -60 0
-56 -61 0
-56 -62 0
-56 -63 0
-56 -64 0
-56 -65 0
-56 -66 0
-57 -58 0
-57 -59 0
-57 -60 0
-57 -61 0
-57 -62 0
-57 -63 0
-57 -64 0
-57 -65 0
-57 -66 0
-58 -59 0
-58 -60 0
-58 -61 0
-58 -62 0
-58 -63 0
-58 -64 0
-58 -65 0
-58 -66 0
-59 -60 0
-59 -61 0
-59 -62 0
-59 -63 0
-59 -64 0
-59 -65 0
-59 -66 0
-60 -61 0
-60 -62 0
-60 -63 0
-60 -64 0
-60 -65 0
-60 -66 0
-61 -62 0
-61 -63 0
-61 -64 0
-61 -65 0
-61 -66 0
-62 -63 0
-62 -64 0
-62 -65 0
-62 -66 0
-63 -64 0
-63 -65 0
-63 -66 0
-64 -65 0
-64 -66 0
-65 -66 0
-67 -68 0
-67 -69 0
-67 -70 0
-67 -71 0
-67 -72 0
-67 -73 0
-67 -74 0
-67 -75 0
-67 -76 0
-67 -77 0
-68 -69 0
-68 -70 0
-68 -71 0
-68 -72 0
-68 -73 0
-68 -74 0
-68 -75 0
-68 -76 0
-68 -77 0
-69 -70 0
-69 -71 0
-69 -72 0
-69 -73 0
-69 -74 0
-69 -75 0
-69 -76 0
-69 -77 0
-70 -71 0
-70 -72 0
-70 -73 0
-70 -74 0
-70 -75 0
-70 -76 0
-70 -77 0
-71 -72 0
-71 -73 0
-71 -74 0
-71 -75 0
-71 -76 0
-71 -77 0
-72 -73 0
-72 -74 0
-72 -75 0
-72 -76 0
-72 -77 0
-73 -74 0
-73 -75 0
-73 -76 0
-73 -77 0
-74 -75 0
-74 -76 0
-74 -77 0
-75 -76 0
-75 -77 0
-76 -77 0
-78 -79 0
-78 -80 0
-78 -81 0
-78 -82 0
-78 -83 0
-78 -84 0
-78 -85 0
-78 -86 0
-78 -87 0
-78 -88 0
-79 -80 0
-79 -81 0
-79 -82 0
-79 -83 0
-79 -84 0
-79 -85 0
-79 -86 0
-79 -87 0
-79 -88 0
-80 -81 0
-80 -82 0
-80 -83 0
-80 -84 0
-80 -85 0
-80 -86 0
-80 -87 0
-80 -88 0
-81 -82 0
-81 -83 0
-81 -84 0
-81 -85 0
-81 -86 0
-81 -87 0
-81 -88 0
-82 -83 0
-82 -84 0
-82 -85 0
-82 -86 0
-82 -87 0
-82 -88 0
-83 -84 0
-83 -85 0
-83 -86 0
-83 -87 0
-83 -88 0
-84 -85 0
-84 -86 0
-84 -87 0
-84 -88 0
-85 -86 0
-85 -87 0
-85 -88 0
-86 -87 0
-86 -88 0
-87 -88 0
-89 -90 0
-89 -91 0
-89 -92 0
-89 -93 0
-89 -94 0
-89 -95 0
-89 -96 0
-89 -97 0
-89 -98 0
-89 -99 0
-90 -91 0
-90 -92 0
-90 -93 0
-90 -94 0
-90 -95 0
-90 -96 0
-90 -97 0
-90 -98 0
-90 -99 0
-91 -92 0
-91 -93 0
-91 -94 0
-91 -95 0
-91 -96 0
-91 -97 0
-91 -98 0
-91 -99 0
-92 -93 0
-92 -94 0
-92 -95 0
-92 -96 0
-92 -97 0
-92 -98 0
-92 -99 0
-93 -94 0
-93 -95 0
-93 -96 0
-93 -97 0
-93 -98 0
-93 -99 0
-94 -95 0
-94 -96 0
-94 -97 0
-94 -98 0
-94 -99 0
-95 -96 0
-95 -97 0
-95 -98 0
-95 -99 0
-96 -97 0
-96 -98 0
-96 -99 0
-97 -98 0
-97 -99 0
-98 -99 0
-100 -101 0
-100 -102 0
-100 -103 0
-100 -104 0
-100 -105 0
-100 -106 0
-100 -107 0
-100 -108 0
-100 -109 0
-100 -110 0
-101 -102 0
-101 -103 0
-101 -104 0
-101 -105 0
-101 -106 0
-101 -107 0
-101 -108 0
-101 -109 0
-101 -110 0
-102 -103 0
-102 -104 0
-102 -105 0
-102 -106 0
-102 -107 0
-102 -108 0
-102 -109 0
-102 -110 0
-103 -104 0
-103 -105 0
-103 -106 0
-103 -107 0
-103 -108 0
-103 -109 0
-103 -110 0
-104 -105 0
-104 -106 0
-104 -107 0
-104 -108 0
-104 -109 0
-104 -110 0
-105 -106 0
-105 -107 0
-105 -108 0
-105 -109 0
-105 -110 0
-106 -107 0
-106 -108 0
-106 -109 0
-106 -110 0
-107 -108 0
-107 -109 0
-107 -110 0
-108 -109 0
-108 -110 0
-109 -110 0
-1 -12 0
-2 -13 0
-3 -14 0
-4 -15 0
-5 -16 0
-6 -17 0
-7 -18 0
-8 -19 0
-9 -20 0
-10 -21 0
-11 -22 0
-1 -23 0
-2 -24 0
-3 -25 0
-4 -26 0
-5 -27 0
-6 -28 0
-7 -29 0
-8 -30 0
-9 -31 0
-10 -32 0
-11 -33 0
-1 -34 0
-2 -35 0
-3 -36 0
-4 -37 0
-5 -38 0
-6 -39 0
-7 -40 0
-8 -41 0
-9 -42 0
-10 -43 0
-11 -44 0
-1 -45 0
-2 -46 0
-3 -47 0
-4 -48 0
-5 -49 0
-6 -50 0
-7 -51 0
-8 -52 0
-9 -53 0
-10 -54 0
-11 -55 0
-1 -56 0
-2 -57 0
-3 -58 0
-4 -59 0
-5 -60 0
-6 -61 0
-7 -62 0
-8 -63 0
-9 -64 0
-10 -65 0
-11 -66 0
-1 -67 0
-2 -68 0
-3 -69 0
-4 -70 0
-5 -71 0
-6 -72 0
-7 -73 0
-8 -74 0
-9 -75 0
-10 -76 0
-11 -77 0
-1 -78 0
-2 -79 0
-3 -80 0
-4 -81 0
-5 -82 0
-6 -83 0
-7 -84 0
-8 -85 0
-9 -86 0
-10 -87 0
-11 -88 0
-1 -89 0
-2 -90 0
-3 -91 0
-4 -92 0
-5 -93 0
-6 -94 0
-7 -95 0
-8 -96 0
-9 -97 0
-10 -98 0
-11 -99 0
-1 -100 0
-2 -101 0
-3 -102 0
-4 -103 0
-5 -104 0
-6 -105 0
-7 -106 0
-8 -107 0
-9 -108 0
-10 -109 0
-11 -110 0
-12 -23 0
-13 -24 0
-14 -25 0
-15 -26 0
-16 -27 0
-17 -28 0
-18 -29 0
-19 -30 0
-20 -31 0
-21 -32 0
-22 -33 0
-12 -34 0
-13 -35 0
-14 -36 0
-15 -37 0
-16 -38 0
-17 -39 0
-18 -40 0
-19 -41 0
-20 -42 0
-21 -43 0
-22 -44 0
-12 -45 0
-13 -46 0
-14 -47 0
-15 -48 0
-16 -49 0
-17 -50 0
-18 -51 0
-19 -52 0
-20 -53 0
-21 -54 0
-22 -55 0
-12 -56 0
-13 -57 0
-14 -58 0
-15 -59 0
-16 -60 0
-17 -61 0
-18 -62 0
-19 -63 0
-20 -64 0
-21 -65 0
-22 -66 0
-12 -67 0
-13 -68 0
-14 -69 0
-15 -70 0
-16 -71 0
-17 -72 0
-18 -73 0
-19 -74 0
-20 -75 0
-21 -76 0
-22 -77 0
-12 -78 0
-13 -79 0
-14 -80 0
-15 -81 0
-16 -82 0
-17 -83 0
-18 -84 0
-19 -85 0
-20 -86 0
-21 -87 0
-22 -88 0
-12 -89 0
-13 -90 0
-14 -91 0
-15 -92 0
-16 -93 0
-17 -94 0
-18 -95 0
-19 -96 0
-20 -97 0
-21 -98 0
-22 -99 0
-12 -100 0
-13 -101 0
-14 -102 0
-15 -103 0
-16 -104 0
-17 -105 0
-18 -106 0
-19 -107 0
-20 -108 0
-21 -109 0
-22 -110 0
-23 -34 0
-24 -35 0
-25 -36 0
-26 -37 0
-27 -38 0
-28 -39 0
-29 -40 0
-30 -41 0
-31 -42 0
-32 -43 0
-33 -44 0
-23 -45 0
-24 -46 0
-25 -47 0
-26 -48 0
-27 -49 0
-28 -50 0
-29 -51 0
-30 -52 0
-31 -53 0
-32 -54 0
-33 -55 0
-23 -56 0
-24 -57 0
-25 -58 0
-26 -59 0
-27 -60 0
-28 -61 0
-29 -62 0
-30 -63 0
-31 -64 0
-32 -65 0
-33 -66 0
-23 -67 0
-24 -68 0
-25 -69 0
-26 -70 0
-27 -71 0
-28 -72 0
-29 -73 0
-30 -74 0
-31 -75 0
-32 -76 0
-33 -77 0
-23 -78 0
-24 -79 0
-25 -80 0
-26 -81 0
-27 -82 0
-28 -83 0
-29 -84 0
-30 -85 0
-31 -86 0
-32 -87 0
-33 -88 0
-23 -89 0
-24 -90 0
-25 -91 0
-26 -92 0
-27 -93 0
-28 -94 0
-29 -95 0
-30 -96 0
-31 -97 0
-32 -98 0
-33 -99 0
-23 -100 0
-24 -101 0
-25 -102 0
-26 -103 0
-27 -104 0
-28 -105 0
-29 -106 0
-30 -107 0
-31 -108 0
-32 -109 0
-33 -110 0
-34 -45 0
-35 -46 0
-36 -47 0
-37 -48 0
-38 -49 0
-39 -50 0
-40 -51 0
-41 -52 0
-42 -53 0
-43 -54 0
-44 -55 0
-34 -56 0
-35 -57 0
-36 -58 0
-37 -59 0
-38 -60 0
-39 -61 0
-40 -62 0
-41 -63 0
-42 -64 0
-43 -65 0
-44 -66 0
-34 -67 0
-35 -68 0
-36 -69 0
-37 -70 0
-38 -71 0
-39 -72 0
-40 -73 0
-41 -74 0
-42 -75 0
-43 -76 0
-44 -77 0
-34 -78 0
-35 -79 0
-36 -80 0
-37 -81 0
-38 -82 0
-39 -83 0
-40 -84 0
-41 -85 0
-42 -86 0
-43 -87 0
-44 -88 0
-34 -89 0
-35 -90 0
-36 -91 0
-37 -92 0
-38 -93 0
-39 -94 0
-40 -95 0
-41 -96 0
-42 -97 0
-43 -98 0
-44 -99 0
-34 -100 0
-35 -101 0
-36 -102 0
-37 -103 0
-38 -104 0
-39 -105 0
-40 -106 0
-41 -107 0
-42 -108 0
-43 -109 0
-44 -110 0
-45 -56 0
-46 -57 0
-47 -58 0
-48 -59 0
-49 -60 0
-50 -61 0
-51 -62 0
-52 -63 0
-53 -64 0
-54 -65 0
-55 -66 0
-45 -67 0
-46 -68 0
-47 -69 0
-48 -70 0
-49 -71 0
-50 -72 0
-51 -73 0
-52 -74 0
-53 -75 0
-54 -76 0
-55 -77 0
-45 -78 0
-46 -79 0
-47 -80 0
-48 -81 0
-49 -82 0
-50 -83 0
-51 -84 0
-52 -85 0
-53 -86 0
-54 -87 0
-55 -88 0
-45 -89 0
-46 -90 0
-47 -91 0
-48 -92 0
-49 -93 0
-50 -94 0
-51 -95 0
-52 -96 0
-53 -97 0
-54 -98 0
-55 -99 0
-45 -100 0
-46 -101 0
-47 -102 0
-48 -103 0
-49 -104 0
-50 -105 0
-51 -106 0
-52 -107 0
-53 -108 0
-54 -109 0
-55 -110 0
-56 -67 0
-57 -68 0
-58 -69 0
-59 -70 0
-60 -71 0
-61 -72 0
-62 -73 0
-63 -74 0
-64 -75 0
-65 -76 0
-66 -77 0
-56 -78 0
-57 -79 0
-58 -80 0
-59 -81 0
-60 -82 0
-61 -83 0
-62 -84 0
-63 -85 0
-64 -86 0
-65 -87 0
-66 -88 0
-56 -89 0
-57 -90 0
-58 -91 0
-59 -92 0
-60 -93 0
-61 -94 0
-62 -95 0
-63 -96 0
-64 -97 0
-65 -98 0
-66 -99 0
-56 -100 0
-57 -101 0
-58 -102 0
-59 -103 0
-60 -104 0
-61 -105 0
-62 -106 0
-63 -107 0
-64 -108 0
-65 -109 0
-66 -110 0
-67 -78 0
-68 -79 0
-69 -80 0
-70 -81 0
-71 -82 0
-72 -83 0
-73 -84 0
-74 -85 0
-75 -86 0
-76 -87 0
-77 -88 0
-67 -89 0
-68 -90 0
-69 -91 0
-70 -92 0
-71 -93 0
-72 -94 0
-73 -95 0
-74 -96 0
-75 -97 0
-76 -98 0
-77 -99 0
-67 -100 0
-68 -101 0
-69 -102 0
-70 -103 0
-71 -104 0
-72 -105 0
-73 -106 0
-74 -107 0
-75 -108 0
-76 -109 0
-77 -110 0
-78 -89 0
-79 -90 0
-80 -91 0
-81 -92 0
-82 -93 0
-83 -94 0
-84 -95 0
-85 -96 0
-86 -97 0
-87 -98 0
-88 -99 0
-78 -100 0
-79 -101 0
-80 -102 0
-81 -103 0
-82 -104 0
-83 -105 0
-84 -106 0
-85 -107 0
-86 -108 0
-87 -109 0
-88 -110 0
-89 -100 0
-90 -101 0
-91 -102 0
-92 -103 0
-93 -104 0
-94 -105 0
-95 -106 0
-96 -107 0
-97 -108 0
-98 -109 0
-99 -110 0
-2 -12 0
-3 -12 0
-3 -13 0
-4 -12 0
-4 -13 0
-4 -14 0
-5 -12 0
-5 -13 0
-5 -14 0
-5 -15 0
-6 -12 0
-6 -13 0
-6 -14 0
-6 -15 0
-6 -16 0
-7 -12 0
-7 -13 0
-7 -14 0
-7 -15 0
-7 -16 0
-7 -17 0
-8 -12 0
-8 -13 0
-8 -14 0
-8 -15 0
-8 -16 0
-8 -17 0
-8 -18 0
-9 -12 0
-9 -13 0
-9 -14 0
-9 -15 0
-9 -16 0
-9 -17 0
-9 -18 0
-9 -19 0
-10 -12 0
-10 -13 0
-10 -14 0
-10 -15 0
-10 -16 0
-10 -17 0
-10 -18 0
-10 -19 0
-10 -20 0
-11 -12 0
-11 -13 0
-11 -14 0
-11 -15 0
-11 -16 0
-11 -17 0
-11 -18 0
-11 -19 0
-11 -20 0
-11 -21 0
-2 -23 0
-3 -23 0
-3 -24 0
-4 -23 0
-4 -24 0
-4 -25 0
-5 -23 0
-5 -24 0
-5 -25 0
-5 -26 0
-6 -23 0
-6 -24 0
-6 -25 0
-6 -26 0
-6 -27 0
-7 -23 0
-7 -24 0
-7 -25 0
-7 -26 0
-7 -27 0
-7 -28 0
-8 -23 0
-8 -24 0
-8 -25 0
-8 -26 0
-8 -27 0
-8 -28 0
-8 -29 0
-9 -23 0
-9 -24 0
-9 -25 0
-9 -26 0
-9 -27 0
-9 -28 0
-9 -29 0
-9 -30 0
-10 -23 0
-10 -24 0
-10 -25 0
-10 -26 0
-10 -27 0
-10 -28 0
-10 -29 0
-10 -30 0
-10 -31 0
-11 -23 0
-11 -24 0
-11 -25 0
-11 -26 0
-11 -27 0
-11 -28 0
-11 -29 0
-11 -30 0
-11 -31 0
-11 -32 0
-2 -34 0
-3 -34 0
-3 -35 0
-4 -34 0
-4 -35 0
-4 -36 0
-5 -34 0
-5 -35 0
-5 -36 0
-5 -37 0
-6 -34 0
-6 -35 0
-6 -36 0
-6 -37 0
-6 -38 0
-7 -34 0
-7 -35 0
-7 -36 0
-7 -37 0
-7 -38 0
-7 -39 0
-8 -34 0
-8 -35 0
-8 -36 0
-8 -37 0
-8 -38 0
-8 -39 0
-8 -40 0
-9 -34 0
-9 -35 0
-9 -36 0
-9 -37 0
-9 -38 0
-9 -39 0
-9 -40 0
-9 -41 0
-10 -34 0
-10 -35 0
-10 -36 0
-10 -37 0
-10 -38 0
-10 -39 0
-10 -40 0
-10 -41 0
-10 -42 0
-11 -34 0
-11 -35 0
-11 -36 0
-11 -37 0
-11 -38 0
-11 -39 0
-11 -40 0
-11 -41 0
-11 -42 0
-11 -43 0
-2 -45 0
-3 -45 0
-3 -46 0
-4 -45 0
-4 -46 0
-4 -47 0
-5 -45 0
-5 -46 0
-5 -47 0
-5 -48 0
-6 -45 0
-6 -46 0
-6 -47 0
-6 -48 0
-6 -49 0
-7 -45 0
-7 -46 0
-7 -47 0
-7 -48 0
-7 -49 0
-7 -50 0
-8 -45 0
-8 -46 0
-8 -47 0
-8 -48 0
-8 -49 0
-8 -50 0
-8 -51 0
-9 -45 0
-9 -46 0
-9 -47 0
-9 -48 0
-9 -49 0
-9 -50 0
-9 -51 0
-9 -52 0
-10 -45 0
-10 -46 0
-10 -47 0
-10 -48 0
-10 -49 0
-10 -50 0
-10 -51 0
-10 -52 0
-10 -53 0
-11 -45 0
-11 -46 0
-11 -47 0
-11 -48 0
-11 -49 0
-11 -50 0
-11 -51 0
-11 -52 0
-11 -53 0
-11 -54 0
-2 -56 0
-3 -56 0
-3 -57 0
-4 -56 0
-4 -57 0
-4 -58 0
-5 -56 0
-5 -57 0
-5 -58 0
-5 -59 0
-6 -56 0
-6 -57 0
-6 -58 0
-6 -59 0
-6 -60 0
-7 -56 0
-7 -57 0
-7 -58 0
-7 -59 0
-7 -60 0
-7 -61 0
-8 -56 0
-8 -57 0
-8 -58 0
-8 -59 0
-8 -60 0
-8 -61 0
-8 -62 0
-9 -56 0
-9 -57 0
-9 -58 0
-9 -59 0
-9 -60 0
-9 -61 0
-9 -62 0
-9 -63 0
-10 -56 0
-10 -57 0
-10 -58 0
-10 -59 0
-10 -60 0
-10 -61 0
-10 -62 0
-10 -63 0
-10 -64 0
-11 -56 0
-11 -57 0
-11 -58 0
-11 -59 0
-11 -60 0
-11 -61 0
-11 -62 0
-11 -63 0
-11 -64 0
-11 -65 0
-2 -67 0
-3 -67 0
-3 -68 0
-4 -67 0
-4 -68 0
-4 -69 0
-5 -67 0
-5 -68 0
-5 -69 0
-5 -70 0
-6 -67 0
-6 -68 0
-6 -69 0
-6 -70 0
-6 -71 0
-7 -67 0
-7 -68 0
-7 -69 0
-7 -70 0
-7 -71 0
-7 -72 0
-8 -67 0
-8 -68 0
-8 -69 0
-8 -70 0
-8 -71 0
-8 -72 0
-8 -73 0
-9 -67 0
-9 -68 0
-9 -69 0
-9 -70 0
-9 -71 0
-9 -72 0
-9 -73 0
-9 -74 0
-10 -67 0
-10 -68 0
-10 -69 0
-10 -70 0
-10 -71 0
-10 -72 0
-10 -73 0
-10 -74 0
-10 -75 0
-11 -67 0
-11 -68 0
-11 -69 0
-11 -70 0
-11 -71 0
-11 -72 0
-11 -73 0
-11 -74 0
-11 -75 0
-11 -76 0
-2 -78 0
-3 -78 0
-3 -79 0
-4 -78 0
-4 -79 0
-4 -80 0
-5 -78 0
-5 -79 0
-5 -80 0
-5 -81 0
-6 -78 0
-6 -79 0
-6 -80 0
-6 -81 0
-6 -82 0
-7 -78 0
-7 -79 0
-7 -80 0
-7 -81 0
-7 -82 0
-7 -83 0
-8 -78 0
-8 -79 0
-8 -80 0
-8 -81 0
-8 -82 0
-8 -83 0
-8 -84 0
-9 -78 0
-9 -79 0
-9 -80 0
-9 -81 0
-9 -82 0
-9 -83 0
-9 -84 0
-9 -85 0
-10 -78 0
-10 -79 0
-10 -80 0
-10 -81 0
-10 -82 0
-10 -83 0
-10 -84 0
-10 -85 0
-10 -86 0
-11 -78 0
-11 -79 0
-11 -80 0
-11 -81 0
-11 -82 0
-11 -83 0
-11 -84 0
-11 -85 0
-11 -86 0
-11 -87 0
-2 -89 0
-3 -89 0
-3 -90 0
-4 -89 0
-4 -90 0
-4 -91 0
-5 -89 0
-5 -90 0
-5 -91 0
-5 -92 0
-6 -89 0
-6 -90 0
-6 -91 0
-6 -92 0
-6 -93 0
-7 -89 0
-7 -90 0
-7 -91 0
-7 -92 0
-7 -93 0
-7 -94 0
-8 -89 0
-8 -90 0
-8 -91 0
-8 -92 0
-8 -93 0
-8 -94 0
-8 -95 0
-9 -89 0
-9 -90 0
-9 -91 0
-9 -92 0
-9 -93 0
-9 -94 0
-9 -95 0
-9 -96 0
-10 -89 0
-10 -90 0
-10 -91 0
-10 -92 0
-10 -93 0
-10 -94 0
-10 -95 0
-10 -96 0
-10 -97 0
-11 -89 0
-11 -90 0
-11 -91 0
-11 -92 0
-11 -93 0
-11 -94 0
-11 -95 0
-11 -96 0
-11 -97 0
-11 -98 0
-2 -100 0
-3 -100 0
-3 -101 0
-4 -100 0
-4 -101 0
-4 -102 0
-5 -100 0
-5 -101 0
-5 -102 0
-5 -103 0
-6 -100 0
-6 -101 0
-6 -102 0
-6 -103 0
-6 -104 0
-7 -100 0
-7 -101 0
-7 -102 0
-7 -103 0
-7 -104 0
-7 -105 0
-8 -100 0
-8 -101 0
-8 -102 0
-8 -103 0
-8 -104 0
-8 -105 0
-8 -106 0
-9 -100 0
-9 -101 0
-9 -102 0
-9 -103 0
-9 -104 0
-9 -105 0
-9 -106 0
-9 -107 0
-10 -100 0
-10 -101 0
-10 -102 0
-10 -103 0
-10 -104 0
-10 -105 0
-10 -106 0
-10 -107 0
-10 -108 0
-11 -100 0
-11 -101 0
-11 -102 0
-11 -103 0
-11 -104 0
-11 -105 0
-11 -106 0
-11 -107 0
-11 -108 0
-11 -109 0
-13 -23 0
-14 -23 0
-14 -24 0
-15 -23 0
-15 -24 0
-15 -25 0
-16 -23 0
-16 -24 0
-16 -25 0
-16 -26 0
-17 -23 0
-17 -24 0
-17 -25 0
-17 -26 0
-17 -27 0
-18 -23 0
-18 -24 0
-18 -25 0
-18 -26 0
-18 -27 0
-18 -28 0
-19 -23 0
-19 -24 0
-19 -25 0
-19 -26 0
-19 -27 0
-19 -28 0
-19 -29 0
-20 -23 0
-20 -24 0
-20 -25 0
-20 -26 0
-20 -27 0
-20 -28 0
-20 -29 0
-20 -30 0
-21 -23 0
-21 -24 0
-21 -25 0
-21 -26 0
-21 -27 0
-21 -28 0
-21 -29 0
-21 -30 0
-21 -31 0
-22 -23 0
-22 -24 0
-22 -25 0
-22 -26 0
-22 -27 0
-22 -28 0
-22 -29 0
-22 -30 0
-22 -31 0
-22 -32 0
-13 -34 0
-14 -34 0
-14 -35 0
-15 -34 0
-15 -35 0
-15 -36 0
-16 -34 0
-16 -35 0
-16 -36 0
-16 -37 0
-17 -34 0
-17 -35 0
-17 -36 0
-17 -37 0
-17 -38 0
-18 -34 0
-18 -35 0
-18 -36 0
-18 -37 0
-18 -38 0
-18 -39 0
-19 -34 0
-19 -35 0
-19 -36 0
-19 -37 0
-19 -38 0
-19 -39 0
-19 -40 0
-20 -34 0
-20 -35 0
-20 -36 0
-20 -37 0
-20 -38 0
-20 -39 0
-20 -40 0
-20 -41 0
-21 -34 0
-21 -35 0
-21 -36 0
-21 -37 0
-21 -38 0
-21 -39 0
-21 -40 0
-21 -41 0
-21 -42 0
-22 -34 0
-22 -35 0
-22 -36 0
-22 -37 0
-22 -38 0
-22 -39 0
-22 -40 0
-22 -41 0
-22 -42 0
-22 -43 0
-13 -45 0
-14 -45 0
-14 -46 0
-15 -45 0
-15 -46 0
-15 -47 0
-16 -45 0
-16 -46 0
-16 -47 0
-16 -48 0
-17 -45 0
-17 -46 0
-17 -47 0
-17 -48 0
-17 -49 0
-18 -45 0
-18 -46 0
-18 -47 0
-18 -48 0
-18 -49 0
-18 -50 0
-19 -45 0
-19 -46 0
-19 -47 0
-19 -48 0
-19 -49 0
-19 -50 0
-19 -51 0
-20 -45 0
-20 -46 0
-20 -47 0
-20 -48 0
-20 -49 0
-20 -50 0
-20 -51 0
-20 -52 0
-21 -45 0
-21 -46 0
-21 -47 0
-21 -48 0
-21 -49 0
-21 -50 0
-21 -51 0
-21 -52 0
-21 -53 0
-22 -45 0
-22 -46 0
-22 -47 0
-22 -48 0
-22 -49 0
-22 -50 0
-22 -51 0
-22 -52 0
-22 -53 0
-22 -54 0
-13 -56 0
-14 -56 0
-14 -57 0
-15 -56 0
-15 -57 0
-15 -58 0
-16 -56 0
-16 -57 0
-16 -58 0
-16 -59 0
-17 -56 0
-17 -57 0
-17 -58 0
-17 -59 0
-17 -60 0
-18 -56 0
-18 -57 0
-18 -58 0
-18 -59 0
-18 -60 0
-18 -61 0
-19 -56 0
-19 -57 0
-19 -58 0
-19 -59 0
-19 -60 0
-19 -61 0
-19 -62 0
-20 -56 0
-20 -57 0
-20 -58 0
-20 -59 0
-20 -60 0
-20 -61 0
-20 -62 0
-20 -63 0
-21 -56 0
-21 -57 0
-21 -58 0
-21 -59 0
-21 -60 0
-21 -61 0
-21 -62 0
-21 -63 0
-21 -64 0
-22 -56 0
-22 -57 0
-22 -58 0
-22 -59 0
-22 -60 0
-22 -61 0
-22 -62 0
-22 -63 0
-22 -64 0
-22 -65 0
-13 -67 0
-14 -67 0
-14 -68 0
-15 -67 0
-15 -68 0
-15 -69 0
-16 -67 0
-16 -68 0
-16 -69 0
-16 -70 0
-17 -67 0
-17 -68 0
-17 -69 0
-17 -70 0
-17 -71 0
-18 -67 0
-18 -68 0
-18 -69 0
-18 -70 0
-18 -71 0
-18 -72 0
-19 -67 0
-19 -68 0
-19 -69 0
-19 -70 0
-19 -71 0
-19 -72 0
-19 -73 0
-20 -67 0
-20 -68 0
-20 -69 0
-20 -70 0
-20 -71 0
-20 -72 0
-20 -73 0
-20 -74 0
-21 -67 0
-21 -68 0
-21 -69 0
-21 -70 0
-21 -71 0
-21 -72 0
-21 -73 0
-21 -74 0
-21 -75 0
-22 -67 0
-22 -68 0
-22 -69 0
-22 -70 0
-22 -71 0
-22 -72 0
-22 -73 0
-22 -74 0
-22 -75 0
-22 -76 0
-13 -78 0
-14 -78 0
-14 -79 0
-15 -78 0
-15 -79 0
-15 -80 0
-16 -78 0
-16 -79 0
-16 -80 0
-16 -81 0
-17 -78 0
-17 -79 0
-17 -80 0
-17 -81 0
-17 -82 0
-18 -78 0
-18 -79 0
-18 -80 0
-18 -81 0
-18 -82 0
-18 -83 0
-19 -78 0
-19 -79 0
-19 -80 0
-19 -81 0
-19 -82 0
-19 -83 0
-19 -84 0
-20 -78 0
-20 -79 0
-20 -80 0
-20 -81 0
-20 -82 0
-20 -83 0
-20 -84 0
-20 -85 0
-21 -78 0
-21 -79 0
-21 -80 0
-21 -81 0
-21 -82 0
-21 -83 0
-21 -84 0
-21 -85 0
-21 -86 0
-22 -78 0
-22 -79 0
-22 -80 0
-22 -81 0
-22 -82 0
-22 -83 0
-22 -84 0
-22 -85 0
-22 -86 0
-22 -87 0
-13 -89 0
-14 -89 0
-14 -90 0
-15 -89 0
-15 -90 0
-15 -91 0
-16 -89 0
-16 -90 0
-16 -91 0
-16 -92 0
-17 -89 0
-17 -90 0
-17 -91 0
-17 -92 0
-17 -93 0
-18 -89 0
-18 -90 0
-18 -91 0
-18 -92 0
-18 -93 0
-18 -94 0
-19 -89 0
-19 -90 0
-19 -91 0
-19 -92 0
-19 -93 0
-19 -94 0
-19 -95 0
-20 -89 0
-20 -90 0
-20 -91 0
-20 -92 0
-20 -93 0
-20 -94 0
-20 -95 0
-20 -96 0
-21 -89 0
-21 -90 0
-21 -91 0
-21 -92 0
-21 -93 0
-21 -94 0
-21 -95 0
-21 -96 0
-21 -97 0
-22 -89 0
-22 -90 0
-22 -91 0
-22 -92 0
-22 -93 0
-22 -94 0
-22 -95 0
-22 -96 0
-22 -97 0
-22 -98 0
-13 -100 0
-14 -100 0
-14 -101 0
-15 -100 0
-15 -101 0
-15 -102 0
-16 -100 0
-16 -101 0
-16 -102 0
-16 -103 0
-17 -100 0
-17 -101 0
-17 -102 0
-17 -103 0
-17 -104 0
-18 -100 0
-18 -101 0
-18 -102 0
-18 -103 0
-18 -104 0
-18 -105 0
-19 -100 0
-19 -101 0
-19 -102 0
-19 -103 0
-19 -104 0
-19 -105 0
-19 -106 0
-20 -100 0
-20 -101 0
-20 -102 0
-20 -103 0
-20 -104 0
-20 -105 0
-20 -106 0
-20 -107 0
-21 -100 0
-21 -101 0
-21 -102 0
-21 -103 0
-21 -104 0
-21 -105 0
-21 -106 0
-21 -107 0
-21 -108 0
-22 -100 0
-22 -101 0
-22 -102 0
-22 -103 0
-22 -104 0
-22 -105 0
-22 -106 0
-22 -107 0
-22 -108 0
-22 -109 0
-24 -34 0
-25 -34 0
-25 -35 0
-26 -34 0
-26 -35 0
-26 -36 0
-27 -34 0
-27 -35 0
-27 -36 0
-27 -37 0
-28 -34 0
-28 -35 0
-28 -36 0
-28 -37 0
-28 -38 0
-29 -34 0
-29 -35 0
-29 -36 0
-29 -37 0
-29 -38 0
-29 -39 0
-30 -34 0
-30 -35 0
-30 -36 0
-30 -37 0
-30 -38 0
-30 -39 0
-30 -40 0
-31 -34 0
-31 -35 0
-31 -36 0
-31 -37 0
-31 -38 0
-31 -39 0
-31 -40 0
-31 -41 0
-32 -34 0
-32 -35 0
-32 -36 0
-32 -37 0
-32 -38 0
-32 -39 0
-32 -40 0
-32 -41 0
-32 -42 0
-33 -34 0
-33 -35 0
-33 -36 0
-33 -37 0
-33 -38 0
-33 -39 0
-33 -40 0
-33 -41 0
-33 -42 0
-33 -43 0
-24 -45 0
-25 -45 0
-25 -46 0
-26 -45 0
-26 -46 0
-26 -47 0
-27 -45 0
-27 -46 0
-27 -47 0
-27 -48 0
-28 -45 0
-28 -46 0
-28 -47 0
-28 -48 0
-28 -49 0
-29 -45 0
-29 -46 0
-29 -47 0
-29 -48 0
-29 -49 0
-29 -50 0
-30 -45 0
-30 -46 0
-30 -47 0
-30 -48 0
-30 -49 0
-30 -50 0
-30 -51 0
-31 -45 0
-31 -46 0
-31 -47 0
-31 -48 0
-31 -49 0
-31 -50 0
-31 -51 0
-31 -52 0
-32 -45 0
-32 -46 0
-32 -47 0
-32 -48 0
-32 -49 0
-32 -50 0
-32 -51 0
-32 -52 0
-32 -53 0
-33 -45 0
-33 -46 0
-33 -47 0
-33 -48 0
-33 -49 0
-33 -50 0
-33 -51 0
-33 -52 0
-33 -53 0
-33 -54 0
-24 -56 0
-25 -56 0
-25 -57 0
-26 -56 0
-26 -57 0
-26 -58 0
-27 -56 0
-27 -57 0
-27 -58 0
-27 -59 0
-28 -56 0
-28 -57 0
-28 -58 0
-28 -59 0
-28 -60 0
-29 -56 0
-29 -57 0
-29 -58 0
-29 -59 0
-29 -60 0
-29 -61 0
-30 -56 0
-30 -57 0
-30 -58 0
-30 -59 0
-30 -60 0
-30 -61 0
-30 -62 0
-31 -56 0
-31 -57 0
-31 -58 0
-31 -59 0
-31 -60 0
-31 -61 0
-31 -62 0
-31 -63 0
-32 -56 0
-32 -57 0
-32 -58 0
-32 -59 0
-32 -60 0
-32 -61 0
-32 -62 0
-32 -63 0
-32 -64 0
-33 -56 0
-33 -57 0
-33 -58 0
-33 -59 0
-33 -60 0
-33 -61 0
-33 -62 0
-33 -63 0
-33 -64 0
-33 -65 0
-24 -67 0
-25 -67 0
-25 -68 0
-26 -67 0
-26 -68 0
-26 -69 0
-27 -67 0
-27 -68 0
-27 -69 0
-27 -70 0
-28 -67 0
-28 -68 0
-28 -69 0
-28 -70 0
-28 -71 0
-29 -67 0
-29 -68 0
-29 -69 0
-29 -70 0
-29 -71 0
-29 -72 0
-30 -67 0
-30 -68 0
-30 -69 0
-30 -70 0
-30 -71 0
-30 -72 0
-30 -73 0
-31 -67 0
-31 -68 0
-31 -69 0
-31 -70 0
-31 -71 0
-31 -72 0
-31 -73 0
-31 -74 0
-32 -67 0
-32 -68 0
-32 -69 0
-32 -70 0
-32 -71 0
-32 -72 0
-32 -73 0
-32 -74 0
-32 -75 0
-33 -67 0
-33 -68 0
-33 -69 0
-33 -70 0
-33 -71 0
-33 -72 0
-33 -73 0
-33 -74 0
-33 -75 0
-33 -76 0
-24 -78 0
-25 -78 0
-25 -79 0
-26 -78 0
-26 -79 0
-26 -80 0
-27 -78 0
-27 -79 0
-27 -80 0
-27 -81 0
-28 -78 0
-28 -79 0
-28 -80 0
-28 -81 0
-28 -82 0
-29 -78 0
-29 -79 0
-29 -80 0
-29 -81 0
-29 -82 0
-29 -83 0
-30 -78 0
-30 -79 0
-30 -80 0
-30 -81 0
-30 -82 0
-30 -83 0
-30 -84 0
-31 -78 0
-31 -79 0
-31 -80 0
-31 -81 0
-31 -82 0
-31 -83 0
-31 -84 0
-31 -85 0
-32 -78 0
-32 -79 0
-32 -80 0
-32 -81 0
-32 -82 0
-32 -83 0
-32 -84 0
-32 -85 0
-32 -86 0
-33 -78 0
-33 -79 0
-33 -80 0
-33 -81 0
-33 -82 0
-33 -83 0
-33 -84 0
-33 -85 0
-33 -86 0
-33 -87 0
-24 -89 0
-25 -89 0
-25 -90 0
-26 -89 0
-26 -90 0
-26 -91 0
-27 -89 0
-27 -90 0
-27 -91 0
-27 -92 0
-28 -89 0
-28 -90 0
-28 -91 0
-28 -92 0
-28 -93 0
-29 -89 0
-29 -90 0
-29 -91 0
-29 -92 0
-29 -93 0
-29 -94 0
-30 -89 0
-30 -90 0
-30 -91 0
-30 -92 0
-30 -93 0
-30 -94 0
-30 -95 0
-31 -89 0
-31 -90 0
-31 -91 0
-31 -92 0
-31 -93 0
-31 -94 0
-31 -95 0
-31 -96 0
-32 -89 0
-32 -90 0
-32 -91 0
-32 -92 0
-32 -93 0
-32 -94 0
-32 -95 0
-32 -96 0
-32 -97 0
-33 -89 0
-33 -90 0
-33 -91 0
-33 -92 0
-33 -93 0
-33 -94 0
-33 -95 0
-33 -96 0
-33 -97 0
-33 -98 0
-24 -100 0
-25 -100 0
-25 -101 0
-26 -100 0
-26 -101 0
-26 -102 0
-27 -100 0
-27 -101 0
-27 -102 0
-27 -103 0
-28 -100 0
-28 -101 0
-28 -102 0
-28 -103 0
-28 -104 0
-29 -100 0
-29 -101 0
-29 -102 0
-29 -103 0
-29 -104 0
-29 -105 0
-30 -100 0
-30 -101 0
-30 -102 0
-30 -103 0
-30 -104 0
-30 -105 0
-30 -106 0
-31 -100 0
-31 -101 0
-31 -102 0
-31 -103 0
-31 -104 0
-31 -105 0
-31 -106 0
-31 -107 0
-32 -100 0
-32 -101 0
-32 -102 0
-32 -103 0
-32 -104 0
-32 -105 0
-32 -106 0
-32 -107 0
-32 -108 0
-33 -100 0
-33 -101 0
-33 -102 0
-33 -103 0
-33 -104 0
-33 -105 0
-33 -106 0
-33 -107 0
-33 -108 0
-33 -109 0
-35 -45 0
-36 -45 0
-36 -46 0
-37 -45 0
-37 -46 0
-37 -47 0
-38 -45 0
-38 -46 0
-38 -47 0
-38 -48 0
-39 -45 0
-39 -46 0
-39 -47 0
-39 -48 0
-39 -49 0
-40 -45 0
-40 -46 0
-40 -47 0
-40 -48 0
-40 -49 0
-40 -50 0
-41 -45 0
-41 -46 0
-41 -47 0
-41 -48 0
-41 -49 0
-41 -50 0
-41 -51 0
-42 -45 0
-42 -46 0
-42 -47 0
-42 -48 0
-42 -49 0
-42 -50 0
-42 -51 0
-42 -52 0
-43 -45 0
-43 -46 0
-43 -47 0
-43 -48 0
-43 -49 0
-43 -50 0
-43 -51 0
-43 -52 0
-43 -53 0
-44 -45 0
-44 -46 0
-44 -47 0
-44 -48 0
-44 -49 0
-44 -50 0
-44 -51 0
-44 -52 0
-44 -53 0
-44 -54 0
-35 -56 0
-36 -56 0
-36 -57 0
-37 -56 0
-37 -57 0
-37 -58 0
-38 -56 0
-38 -57 0
-38 -58 0
-38 -59 0
-39 -56 0
-39 -57 0
-39 -58 0
-39 -59 0
-39 -60 0
-40 -56 0
-40 -57 0
-40 -58 0
-40 -59 0
-40 -60 0
-40 -61 0
-41 -56 0
-41 -57 0
-41 -58 0
-41 -59 0
-41 -60 0
-41 -61 0
-41 -62 0
-42 -56 0
-42 -57 0
-42 -58 0
-42 -59 0
-42 -60 0
-42 -61 0
-42 -62 0
-42 -63 0
-43 -56 0
-43 -57 0
-43 -58 0
-43 -59 0
-43 -60 0
-43 -61 0
-43 -62 0
-43 -63 0
-43 -64 0
-44 -56 0
-44 -57 0
-44 -58 0
-44 -59 0
-44 -60 0
-44 -61 0
-44 -62 0
-44 -63 0
-44 -64 0
-44 -65 0
-35 -67 0
-36 -67 0
-36 -68 0
-37 -67 0
-37 -68 0
-37 -69 0
-38 -67 0
-38 -68 0
-38 -69 0
-38 -70 0
-39 -67 0
-39 -68 0
-39 -69 0
-39 -70 0
-39 -71 0
-40 -67 0
-40 -68 0
-40 -69 0
-40 -70 0
-40 -71 0
-40 -72 0
-41 -67 0
-41 -68 0
-41 -69 0
-41 -70 0
-41 -71 0
-41 -72 0
-41 -73 0
-42 -67 0
-42 -68 0
-42 -69 0
-42 -70 0
-42 -71 0
-42 -72 0
-42 -73 0
-42 -74 0
-43 -67 0
-43 -68 0
-43 -69 0
-43 -70 0
-43 -71 0
-43 -72 0
-43 -73 0
-43 -74 0
-43 -75 0
-44 -67 0
-44 -68 0
-44 -69 0
-44 -70 0
-44 -71 0
-44 -72 0
-44 -73 0
-44 -74 0
-44 -75 0
-44 -76 0
-35 -78 0
-36 -78 0
-36 -79 0
-37 -78 0
-37 -79 0
-37 -80 0
-38 -78 0
-38 -79 0
-38 -80 0
-38 -81 0
-39 -78 0
-39 -79 0
-39 -80 0
-39 -81 0
-39 -82 0
-40 -78 0
-40 -79 0
-40 -80 0
-40 -81 0
-40 -82 0
-40 -83 0
-41 -78 0
-41 -79 0
-41 -80 0
-41 -81 0
-41 -82 0
-41 -83 0
-41 -84 0
-42 -78 0
-42 -79 0
-42 -80 0
-42 -81 0
-42 -82 0
-42 -83 0
-42 -84 0
-42 -85 0
-43 -78 0
-43 -79 0
-43 -80 0
-43 -81 0
-43 -82 0
-43 -83 0
-43 -84 0
-43 -85 0
-43 -86 0
-44 -78 0
-44 -79 0
-44 -80 0
-44 -81 0
-44 -82 0
-44 -83 0
-44 -84 0
-44 -85 0
-44 -86 0
-44 -87 0
-35 -89 0
-36 -89 0
-36 -90 0
-37 -89 0
-37 -90 0
-37 -91 0
-38 -89 0
-38 -90 0
-38 -91 0
-38 -92 0
-39 -89 0
-39 -90 0
-39 -91 0
-39 -92 0
-39 -93 0
-40 -89 0
-40 -90 0
-40 -91 0
-40 -92 0
-40 -93 0
-40 -94 0
-41 -89 0
-41 -90 0
-41 -91 0
-41 -92 0
-41 -93 0
-41 -94 0
-41 -95 0
-42 -89 0
-42 -90 0
-42 -91 0
-42 -92 0
-42 -93 0
-42 -94 0
-42 -95 0
-42 -96 0
-43 -89 0
-43 -90 0
-43 -91 0
-43 -92 0
-43 -93 0
-43 -94 0
-43 -95 0
-43 -96 0
-43 -97 0
-44 -89 0
-44 -90 0
-44 -91 0
-44 -92 0
-44 -93 0
-44 -94 0
-44 -95 0
-44 -96 0
-44 -97 0
-44 -98 0
-35 -100 0
-36 -100 0
-36 -101 0
-37 -100 0
-37 -101 0
-37 -102 0
-38 -100 0
-38 -101 0
-38 -102 0
-38 -103 0
-39 -100 0
-39 -101 0
-39 -102 0
-39 -103 0
-39 -104 0
-40 -100 0
-40 -101 0
-40 -102 0
-40 -103 0
-40 -104 0
-40 -105 0
-41 -100 0
-41 -101 0
-41 -102 0
-41 -103 0
-41 -104 0
-41 -105 0
-41 -106 0
-42 -100 0
-42 -101 0
-42 -102 0
-42 -103 0
-42 -104 0
-42 -105 0
-42 -106 0
-42 -107 0
-43 -100 0
-43 -101 0
-43 -102 0
-43 -103 0
-43 -104 0
-43 -105 0
-43 -106 0
-43 -107 0
-43 -108 0
-44 -100 0
-44 -101 0
-44 -102 0
-44 -103 0
-44 -104 0
-44 -105 0
-44 -106 0
-44 -107 0
-44 -108 0
-44 -109 0
-46 -56 0
-47 -56 0
-47 -57 0
-48 -56 0
-48 -57 0
-48 -58 0
-49 -56 0
-49 -57 0
-49 -58 0
-49 -59 0
-50 -56 0
-50 -57 0
-50 -58 0
-50 -59 0
-50 -60 0
-51 -56 0
-51 -57 0
-51 -58 0
-51 -59 0
-51 -60 0
-51 -61 0
-52 -56 0
-52 -57 0
-52 -58 0
-52 -59 0
-52 -60 0
-52 -61 0
-52 -62 0
-53 -56 0
-53 -57 0
-53 -58 0
-53 -59 0
-53 -60 0
-53 -61 0
-53 -62 0
-53 -63 0
-54 -56 0
-54 -57 0
-54 -58 0
-54 -59 0
-54 -60 0
-54 -61 0
-54 -62 0
-54 -63 0
-54 -64 0
-55 -56 0
-55 -57 0
-55 -58 0
-55 -59 0
-55 -60 0
-55 -61 0
-55 -62 0
-55 -63 0
-55 -64 0
-55 -65 0
-46 -67 0
-47 -67 0
-47 -68 0
-48 -67 0
-48 -68 0
-48 -69 0
-49 -67 0
-49 -68 0
-49 -69 0
-49 -70 0
-50 -67 0
-50 -68 0
-50 -69 0
-50 -70 0
-50 -71 0
-51 -67 0
-51 -68 0
-51 -69 0
-51 -70 0
-51 -71 0
-51 -72 0
-52 -67 0
-52 -68 0
-52 -69 0
-52 -70 0
-52 -71 0
-52 -72 0
-52 -73 0
-53 -67 0
-53 -68 0
-53 -69 0
-53 -70 0
-53 -71 0
-53 -72 0
-53 -73 0
-53 -74 0
-54 -67 0
-54 -68 0
-54 -69 0
-54 -70 0
-54 -71 0
-54 -72 0
-54 -73 0
-54 -74 0
-54 -75 0
-55 -67 0
-55 -68 0
-55 -69 0
-55 -70 0
-55 -71 0
-55 -72 0
-55 -73 0
-55 -74 0
-55 -75 0
-55 -76 0
-46 -78 0
-47 -78 0
-47 -79 0
-48 -78 0
-48 -79 0
-48 -80 0
-49 -78 0
-49 -79 0
-49 -80 0
-49 -81 0
-50 -78 0
-50 -79 0
-50 -80 0
-50 -81 0
-50 -82 0
-51 -78 0
-51 -79 0
-51 -80 0
-51 -81 0
-51 -82 0
-51 -83 0
-52 -78 0
-52 -79 0
-52 -80 0
-52 -81 0
-52 -82 0
-52 -83 0
-52 -84 0
-53 -78 0
-53 -79 0
-53 -80 0
-53 -81 0
-53 -82 0
-53 -83 0
-53 -84 0
-53 -85 0
-54 -78 0
-54 -79 0
-54 -80 0
-54 -81 0
-54 -82 0
-54 -83 0
-54 -84 0
-54 -85 0
-54 -86 0
-55 -78 0
-55 -79 0
-55 -80 0
-55 -81 0
-55 -82 0
-55 -83 0
-55 -84 0
-55 -85 0
-55 -86 0
-55 -87 0
-46 -89 0
-47 -89 0
-47 -90 0
-48 -89 0
-48 -90 0
-48 -91 0
-49 -89 0
-49 -90 0
-49 -91 0
-49 -92 0
-50 -89 0
-50 -90 0
-50 -91 0
-50 -92 0
-50 -93 0
-51 -89 0
-51 -90 0
-51 -91 0
-51 -92 0
-51 -93 0
-51 -94 0
-52 -89 0
-52 -90 0
-52 -91 0
-52 -92 0
-52 -93 0
-52 -94 0
-52 -95 0
-53 -89 0
-53 -90 0
-53 -91 0
-53 -92 0
-53 -93 0
-53 -94 0
-53 -95 0
-53 -96 0
-54 -89 0
-54 -90 0
-54 -91 0
-54 -92 0
-54 -93 0
-54 -94 0
-54 -95 0
-54 -96 0
-54 -97 0
-55 -89 0
-55 -90 0
-55 -91 0
-55 -92 0
-55 -93 0
-55 -94 0
-55 -95 0
-55 -96 0
-55 -97 0
-55 -98 0
-46 -100 0
-47 -100 0
-47 -101 0
-48 -100 0
-48 -101 0
-48 -102 0
-49 -100 0
-49 -101 0
-49 -102 0
-49 -103 0
-50 -100 0
-50 -101 0
-50 -102 0
-50 -103 0
-50 -104 0
-51 -100 0
-51 -101 0
-51 -102 0
-51 -103 0
-51 -104 0
-51 -105 0
-52 -100 0
-52 -101 0
-52 -102 0
-52 -103 0
-52 -104 0
-52 -105 0
-52 -106 0
-53 -100 0
-53 -101 0
-53 -102 0
-53 -103 0
-53 -104 0
-53 -105 0
-53 -106 0
-53 -107 0
-54 -100 0
-54 -101 0
-54 -102 0
-54 -103 0
-54 -104 0
-54 -105 0
-54 -106 0
-54 -107 0
-54 -108 0
-55 -100 0
-55 -101 0
-55 -102 0
-55 -103 0
-55 -104 0
-55 -105 0
-55 -106 0
-55 -107 0
-55 -108 0
-55 -109 0
-57 -67 0
-58 -67 0
-58 -68 0
-59 -67 0
-59 -68 0
-59 -69 0
-60 -67 0
-60 -68 0
-60 -69 0
-60 -70 0
-61 -67 0
-61 -68 0
-61 -69 0
-61 -70 0
-61 -71 0
-62 -67 0
-62 -68 0
-62 -69 0
-62 -70 0
-62 -71 0
-62 -72 0
-63 -67 0
-63 -68 0
-63 -69 0
-63 -70 0
-63 -71 0
-63 -72 0
-63 -73 0
-64 -67 0
-64 -68 0
-64 -69 0
-64 -70 0
-64 -71 0
-64 -72 0
-64 -73 0
-64 -74 0
-65 -67 0
-65 -68 0
-65 -69 0
-65 -70 0
-65 -71 0
-65 -72 0
-65 -73 0
-65 -74 0
-65 -75 0
-66 -67 0
-66 -68 0
-66 -69 0
-66 -70 0
-66 -71 0
-66 -72 0
-66 -73 0
-66 -74 0
-66 -75 0
-66 -76 0
-57 -78 0
-58 -78 0
-58 -79 0
-59 -78 0
-59 -79 0
-59 -80 0
-60 -78 0
-60 -79 0
-60 -80 0
-60 -81 0
-61 -78 0
-61 -79 0
-61 -80 0
-61 -81 0
-61 -82 0
-62 -78 0
-62 -79 0
-62 -80 0
-62 -81 0
-62 -82 0
-62 -83 0
-63 -78 0
-63 -79 0
-63 -80 0
-63 -81 0
-63 -82 0
-63 -83 0
-63 -84 0
-64 -78 0
-64 -79 0
-64 -80 0
-64 -81 0
-64 -82 0
-64 -83 0
-64 -84 0
-64 -85 0
-65 -78 0
-65 -79 0
-65 -80 0
-65 -81 0
-65 -82 0
-65 -83 0
-65 -84 0
-65 -85 0
-65 -86 0
-66 -78 0
-66 -79 0
-66 -80 0
-66 -81 0
-66 -82 0
-66 -83 0
-66 -84 0
-66 -85 0
-66 -86 0
-66 -87 0
-57 -89 0
-58 -89 0
-58 -90 0
-59 -89 0
-59 -90 0
-59 -91 0
-60 -89 0
-60 -90 0
-60 -91 0
-60 -92 0
-61 -89 0
-61 -90 0
-61 -91 0
-61 -92 0
-61 -93 0
-62 -89 0
-62 -90 0
-62 -91 0
-62 -92 0
-62 -93 0
-62 -94 0
-63 -89 0
-63 -90 0
-63 -91 0
-63 -92 0
-63 -93 0
-63 -94 0
-63 -95 0
-64 -89 0
-64 -90 0
-64 -91 0
-64 -92 0
-64 -93 0
-64 -94 0
-64 -95 0
-64 -96 0
-65 -89 0
-65 -90 0
-65 -91 0
-65 -92 0
-65 -93 0
-65 -94 0
-65 -95 0
-65 -96 0
-65 -97 0
-66 -89 0
-66 -90 0
-66 -91 0
-66 -92 0
-66 -93 0
-66 -94 0
-66 -95 0
-66 -96 0
-66 -97 0
-66 -98 0
-57 -100 0
-58 -100 0
-58 -101 0
-59 -100 0
-59 -101 0
-59 -102 0
-60 -100 0
-60 -101 0
-60 -102 0
-60 -103 0
-61 -100 0
-61 -101 0
-61 -102 0
-61 -103 0
-61 -104 0
-62 -100 0
-62 -101 0
-62 -102 0
-62 -103 0
-62 -104 0
-62 -105 0
-63 -100 0
-63 -101 0
-63 -102 0
-63 -103 0
-63 -104 0
-63 -105 0
-63 -106 0
-64 -100 0
-64 -101 0
-64 -102 0
-64 -103 0
-64 -104 0
-64 -105 0
-64 -106 0
-64 -107 0
-65 -100 0
-65 -101 0
-65 -102 0
-65 -103 0
-65 -104 0
-65 -105 0
-65 -106 0
-65 -107 0
-65 -108 0
-66 -100 0
-66 -101 0
-66 -102 0
-66 -103 0
-66 -104 0
-66 -105 0
-66 -106 0
-66 -107 0
-66 -108 0
-66 -109 0
-68 -78 0
-69 -78 0
-69 -79 0
-70 -78 0
-70 -79 0
-70 -80 0
-71 -78 0
-71 -79 0
-71 -80 0
-71 -81 0
-72 -78 0
-72 -79 0
-72 -80 0
-72 -81 0
-72 -82 0
-73 -78 0
-73 -79 0
-73 -80 0
-73 -81 0
-73 -82 0
-73 -83 0
-74 -78 0
-74 -79 0
-74 -80 0
-74 -81 0
-74 -82 0
-74 -83 0
-74 -84 0
-75 -78 0
-75 -79 0
-75 -80 0
-75 -81 0
-75 -82 0
-75 -83 0
-75 -84 0
-75 -85 0
-76 -78 0
-76 -79 0
-76 -80 0
-76 -81 0
-76 -82 0
-76 -83 0
-76 -84 0
-76 -85 0
-76 -86 0
-77 -78 0
-77 -79 0
-77 -80 0
-77 -81 0
-77 -82 0
-77 -83 0
-77 -84 0
-77 -85 0
-77 -86 0
-77 -87 0
-68 -89 0
-69 -89 0
-69 -90 0
-70 -89 0
-70 -90 0
-70 -91 0
-71 -89 0
-71 -90 0
-71 -91 0
-71 -92 0
-72 -89 0
-72 -90 0
-72 -91 0
-72 -92 0
-72 -93 0
-73 -89 0
-73 -90 0
-73 -91 0
-73 -92 0
-73 -93 0
-73 -94 0
-74 -89 0
-74 -90 0
-74 -91 0
-74 -92 0
-74 -93 0
-74 -94 0
-74 -95 0
-75 -89 0
-75 -90 0
-75 -91 0
-75 -92 0
-75 -93 0
-75 -94 0
-75 -95 0
-75 -96 0
-76 -89 0
-76 -90 0
-76 -91 0
-76 -92 0
-76 -93 0
-76 -94 0
-76 -95 0
-76 -96 0
-76 -97 0
-77 -89 0
-77 -90 0
-77 -91 0
-77 -92 0
-77 -93 0
-77 -94 0
-77 -95 0
-77 -96 0
-77 -97 0
-77 -98 0
-68 -100 0
-69 -100 0
-69 -101 0
-70 -100 0
-70 -101 0
-70 -102 0
-71 -100 0
-71 -101 0
-71 -102 0
-71 -103 0
-72 -100 0
-72 -101 0
-72 -102 0
-72 -103 0
-72 -104 0
-73 -100 0
-73 -101 0
-73 -102 0
-73 -103 0
-73 -104 0
-73 -105 0
-74 -100 0
-74 -101 0
-74 -102 0
-74 -103 0
-74 -104 0
-74 -105 0
-74 -106 0
-75 -100 0
-75 -101 0
-75 -102 0
-75 -103 0
-75 -104 0
-75 -105 0
-75 -106 0
-75 -107 0
-76 -100 0
-76 -101 0
-76 -102 0
-76 -103 0
-76 -104 0
-76 -105 0
-76 -106 0
-76 -107 0
-76 -108 0
-77 -100 0
-77 -101 0
-77 -102 0
-77 -103 0
-77 -104 0
-77 -105 0
-77 -106 0
-77 -107 0
-77 -108 0
-77 -109 0
-79 -89 0
-80 -89 0
-80 -90 0
-81 -89 0
-81 -90 0
-81 -91 0
-82 -89 0
-82 -90 0
-82 -91 0
-82 -92 0
-83 -89 0
-83 -90 0
-83 -91 0
-83 -92 0
-83 -93 0
-84 -89 0
-84 -90 0
-84 -91 0
-84 -92 0
-84 -93 0
-84 -94 0
-85 -89 0
-85 -90 0
-85 -91 0
-85 -92 0
-85 -93 0
-85 -94 0
-85 -95 0
-86 -89 0
-86 -90 0
-86 -91 0
-86 -92 0
-86 -93 0
-86 -94 0
-86 -95 0
-86 -96 0
-87 -89 0
-87 -90 0
-87 -91 0
-87 -92 0
-87 -93 0
-87 -94 0
-87 -95 0
-87 -96 0
-87 -97 0
-88 -89 0
-88 -90 0
-88 -91 0
-88 -92 0
-88 -93 0
-88 -94 0
-88 -95 0
-88 -96 0
-88 -97 0
-88 -98 0
-79 -100 0
-80 -100 0
-80 -101 0
-81 -100 0
-81 -101 0
-81 -102 0
-82 -100 0
-82 -101 0
-82 -102 0
-82 -103 0
-83 -100 0
-83 -101 0
-83 -102 0
-83 -103 0
-83 -104 0
-84 -100 0
-84 -101 0
-84 -102 0
-84 -103 0
-84 -104 0
-84 -105 0
-85 -100 0
-85 -101 0
-85 -102 0
-85 -103 0
-85 -104 0
-85 -105 0
-85 -106 0
-86 -100 0
-86 -101 0
-86 -102 0
-86 -103 0
-86 -104 0
-86 -105 0
-86 -106 0
-86 -107 0
-87 -100 0
-87 -101 0
-87 -102 0
-87 -103 0
-87 -104 0
-87 -105 0
-87 -106 0
-87 -107 0
-87 -108 0
-88 -100 0
-88 -101 0
-88 -102 0
-88 -103 0
-88 -104 0
-88 -105 0
-88 -106 0
-88 -107 0
-88 -108 0
-88 -109 0
-90 -100 0
-91 -100 0
-91 -101 0
-92 -100 0
-92 -101 0
-92 -102 0
-93 -100 0
-93 -101 0
-93 -102 0
-93 -103 0
-94 -100 0
-94 -101 0
-94 -102 0
-94 -103 0
-94 -104 0
-95 -100 0
-95 -101 0
-95 -102 0
-95 -103 0
-95 -104 0
-95 -105 0
-96 -100 0
-96 -101 0
-96 -102 0
-96 -103 0
-96 -104 0
-96 -105 0
-96 -106 0
-97 -100 0
-97 -101 0
-97 -102 0
-97 -103 0
-97 -104 0
-97 -105 0
-97 -106 0
-97 -107 0
-98 -100 0
-98 -101 0
-98 -102 0
-98 -103 0
-98 -104 0
-98 -105 0
-98 -106 0
-98 -107 0
-98 -108 0
-99 -100 0
-99 -101 0
-99 -102 0
-99 -103 0
-99 -104 0
-99 -105 0
-99 -106 0
-99 -107 0
-99 -108 0
-99 -109 0
